
Gurobi 12.0.2 (mac64[arm]) logging started Sat Jun 14 00:43:32 2025

Set parameter LogFile to value "/Users/yurunfeng/Documents/GitHub/LRGTS-store-location/result/gurobi/snyder/49nodes/49-0.95-4.log"
Gurobi Optimizer version 12.0.2 build v12.0.2rc0 (mac64[arm] - Darwin 24.5.0 24F74)

CPU model: Apple M4
Thread count: 10 physical cores, 10 logical processors, using up to 10 threads

Non-default parameters:
TimeLimit  1200

Optimize a model with 132251 rows, 240247 columns and 1133517 nonzeros
Model fingerprint: 0x75b0ea67
Variable types: 120099 continuous, 120148 integer (120148 binary)
Coefficient statistics:
  Matrix range     [5e-02, 1e+00]
  Objective range  [2e+02, 3e+06]
  Bounds range     [1e+00, 1e+00]
  RHS range        [1e+00, 4e+00]
Found heuristic solution: objective 2.470516e+07
Presolve removed 4900 rows and 2450 columns
Presolve time: 1.24s
Presolved: 127351 rows, 237797 columns, 1006117 nonzeros
Variable types: 117649 continuous, 120148 integer (120148 binary)
Deterministic concurrent LP optimizer: primal simplex, dual simplex, and barrier
Showing barrier log only...

Root barrier log...

Ordering time: 0.26s

Barrier performed 0 iterations in 1.81 seconds (5.06 work units)
Barrier solve interrupted - model solved by another algorithm

Concurrent spin time: 0.10s (can be avoided by choosing Method=3)

Solved with dual simplex

Root relaxation: objective 9.936896e+05, 2646 iterations, 0.50 seconds (0.98 work units)

    Nodes    |    Current Node    |     Objective Bounds      |     Work
 Expl Unexpl |  Obj  Depth IntInf | Incumbent    BestBd   Gap | It/Node Time

     0     0 993689.634    0  857 2.4705e+07 993689.634  96.0%     -    2s
H    0     0                    1142808.6273 993689.634  13.0%     -    7s
H    0     0                    1142808.1754 993689.634  13.0%     -    7s
     0     0 1009354.83    0 1428 1142808.18 1009354.83  11.7%     -   15s
     0     0 1009354.83    0 1427 1142808.18 1009354.83  11.7%     -   15s
H    0     0                    1113070.5629 1009354.83  9.32%     -   20s
H    0     0                    1107815.1596 1009354.83  8.89%     -   20s
H    0     0                    1103827.4062 1009354.83  8.56%     -   20s
H    0     0                    1098420.1858 1009354.83  8.11%     -   20s
H    0     0                    1096725.5419 1009354.83  7.97%     -   21s
H    0     0                    1096725.5279 1009354.83  7.97%     -   21s
H    0     0                    1096519.6785 1009354.83  7.95%     -   21s
H    0     0                    1096519.6130 1009354.83  7.95%     -   21s
H    0     0                    1096495.6170 1009354.83  7.95%     -   21s
H    0     0                    1096495.0449 1009354.83  7.95%     -   21s
     0     0 1009639.46    0 1433 1096495.04 1009639.46  7.92%     -   21s
     0     0 1015080.89    0 1155 1096495.04 1015080.89  7.42%     -   37s
H    0     0                    1068344.3782 1015080.89  4.99%     -   41s
H    0     0                    1067367.7531 1015080.89  4.90%     -   41s
     0     0 1025868.32    0 1858 1067367.75 1025868.32  3.89%     -   56s
     0     0 1025868.32    0 1857 1067367.75 1025868.32  3.89%     -   56s
H    0     0                    1061279.3123 1025868.44  3.34%     -   60s
     0     0 1026196.46    0 1794 1061279.31 1026196.46  3.31%     -   61s
     0     0 1026196.47    0 1821 1061279.31 1026196.47  3.31%     -   61s
     0     0 1026267.69    0 1827 1061279.31 1026267.69  3.30%     -   61s
     0     0 1030861.02    0 1947 1061279.31 1030861.02  2.87%     -   64s
     0     0 1030873.75    0 2002 1061279.31 1030873.75  2.86%     -   64s
     0     0 1031134.91    0 1995 1061279.31 1031134.91  2.84%     -   66s
     0     0 1031136.61    0 1996 1061279.31 1031136.61  2.84%     -   66s
     0     0 1034590.46    0 2224 1061279.31 1034590.46  2.51%     -   70s
H    0     0                    1056489.4859 1034591.99  2.07%     -   74s
H    0     0                    1055960.2391 1034591.99  2.02%     -   74s
     0     0 1035293.45    0 2318 1055960.24 1035293.45  1.96%     -   75s
     0     0 1035294.99    0 2237 1055960.24 1035294.99  1.96%     -   76s
     0     0 1035328.82    0 2189 1055960.24 1035328.82  1.95%     -   76s
     0     0 1035328.88    0 2186 1055960.24 1035328.88  1.95%     -   76s
     0     0 1035331.33    0 2168 1055960.24 1035331.33  1.95%     -   76s
     0     0 1036548.42    0 2564 1055960.24 1036548.42  1.84%     -   79s
     0     0 1036548.42    0 1127 1055960.24 1036548.42  1.84%     -  107s
H    0     0                    1054377.8147 1036548.42  1.69%     -  109s
H    0     0                    1053892.3824 1036548.42  1.65%     -  109s
H    0     0                    1052293.2948 1036548.42  1.50%     -  110s
H    0     0                    1052293.2930 1036548.42  1.50%     -  111s
     0     0 1036548.42    0 1935 1052293.29 1036548.42  1.50%     -  115s
     0     0 1036548.42    0 1089 1052293.29 1036548.42  1.50%     -  136s
H    0     0                    1050651.6020 1036548.42  1.34%     -  138s
H    0     0                    1049582.0371 1036548.42  1.24%     -  139s
H    0     0                    1049007.8829 1036548.42  1.19%     -  139s
H    0     0                    1049005.1144 1036548.42  1.19%     -  139s
H    0     0                    1049005.1143 1036548.42  1.19%     -  140s
H    0     0                    1048356.5776 1036548.42  1.13%     -  142s
     0     0 1037288.43    0 1678 1048356.58 1037288.43  1.06%     -  148s
     0     0 1037288.43    0 1669 1048356.58 1037288.43  1.06%     -  149s
     0     0 1037288.43    0 1669 1048356.58 1037288.43  1.06%     -  149s
H    0     0                    1047427.3558 1037288.43  0.97%     -  150s
H    0     0                    1047427.3556 1037288.43  0.97%     -  150s
H    0     0                    1046573.7498 1037288.43  0.89%     -  151s
H    0     0                    1044111.0668 1037288.43  0.65%     -  151s
H    0     0                    1044010.4868 1037288.43  0.64%     -  151s
H    0     0                    1043347.7452 1037288.43  0.58%     -  152s
H    0     0                    1043347.7443 1037288.43  0.58%     -  152s
H    0     0                    1043297.9749 1037288.43  0.58%     -  152s
     0     0 1040312.66    0 1534 1043297.97 1040312.66  0.29%     -  154s
     0     0 1040312.66    0 1529 1043297.97 1040312.66  0.29%     -  154s
     0     0 1040312.66    0 1538 1043297.97 1040312.66  0.29%     -  154s
     0     0 1040312.66    0 1536 1043297.97 1040312.66  0.29%     -  154s
     0     0 1040312.66    0 1537 1043297.97 1040312.66  0.29%     -  154s
     0     0 1040312.66    0 1536 1043297.97 1040312.66  0.29%     -  154s
H    0     0                    1043297.9728 1040312.66  0.29%     -  154s
H    0     0                    1043297.9675 1040312.66  0.29%     -  154s
H    0     0                    1043297.9674 1040312.66  0.29%     -  154s
     0     0 1040374.79    0 1524 1043297.97 1040374.79  0.28%     -  155s
     0     0 1040374.79    0 1524 1043297.97 1040374.79  0.28%     -  155s
     0     0 1040447.20    0 1659 1043297.97 1040447.20  0.27%     -  156s
     0     0 1040447.20    0  673 1043297.97 1040447.20  0.27%     -  189s
     0     0 1040764.77    0  853 1043297.97 1040764.77  0.24%     -  189s
     0     0 1040766.16    0  583 1043297.97 1040766.16  0.24%     -  189s
     0     0 1040766.40    0  583 1043297.97 1040766.40  0.24%     -  189s
     0     0 1040766.76    0  584 1043297.97 1040766.76  0.24%     -  190s
     0     0 1040766.78    0  584 1043297.97 1040766.78  0.24%     -  190s
     0     0 1040767.19    0  582 1043297.97 1040767.19  0.24%     -  190s
     0     0 1040769.22    0  592 1043297.97 1040769.22  0.24%     -  190s
H    0     0                    1043267.6713 1040769.22  0.24%     -  190s
H    0     0                    1043258.3560 1040769.22  0.24%     -  191s
     0     0 1040995.49    0  959 1043258.36 1040995.49  0.22%     -  191s
     0     0 1042286.12    0  164 1043258.35 1042286.12  0.09%     -  193s
     0     0 1042286.12    0  168 1043258.35 1042286.12  0.09%     -  193s
     0     0 1042603.48    0  432 1043258.35 1042603.48  0.06%     -  193s

Explored 1 nodes (66467 simplex iterations) in 194.24 seconds (402.71 work units)
Thread count was 10 (of 10 available processors)

Solution count 10: 1.04326e+06 1.04326e+06 1.04327e+06 ... 1.04743e+06

Optimal solution found (tolerance 1.00e-04)
Best objective 1.043258353858e+06, best bound 1.043258353853e+06, gap 0.0000%
